DATASET = "thpack3";
INSTANCE = "023";

WIDTH = 233;
HEIGHT = 220;
LENGTH = 587;

NO_OF_SHAPES = 8;
size = [|
  84,81,23 |
  115,72,64 |
  77,49,25 |
  40,37,22 |
  97,96,46 |
  95,43,25 |
  90,69,28 |
  56,51,49 |
|];

verticality = [|
  0,0,1 |
  1,1,1 |
  0,1,1 |
  1,1,1 |
  0,0,1 |
  0,1,1 |
  0,0,1 |
  1,1,1 |
|];

box_count = [
  13,
  20,
  16,
  8,
  17,
  13,
  22,
  21,
];
